c Sudoku solution
p cnf 729 0
157 0
189 0
223 0
261 0
322 0
387 0
419 0
454 0
546 0
571 0
649 0
599 0
742 0
773 0
798 0
817 0
767 0
237 0
339 0
259 0
162 0
447 0
651 0
527 0
552 0
729 0
875 0
979 0
997 0
869 0
677 0
914 0
784 0
844 0
941 0
612 0
513 0
364 0
356 0
378 0
755 0
966 0
982 0
832 0
933 0
925 0
828 0
853 0
958 0
881 0
896 0
534 0
626 0
421 0
124 0
176 0
285 0
216 0
248 0
711 0
736 0
315 0
131 0
118 0
193 0
391 0
145 0
343 0
274 0
292 0
472 0
694 0
588 0
565 0
683 0
486 0
495 0
463 0
668 0
438 0
635 0
